Nb of jobs, Nb of Machines, Time seed, Machine seed, Upper bound, Lower bound
3,6,-1,-1,-1,-1
Times
59,14,72,59,24,40
10,13,96,84,11,24
20,4,11,30,51,53
Machines
5,6,4,1,2,3
1,3,2,5,6,4
2,4,5,6,3,1
